letting n =  10
letting blocks =  [[1, 3], [1, 9], [2, 5], [2, 6], [2, 7], [2, 8], [2, 9], [2, 10], [3, 3], [3, 5], [3, 6], [3, 7], [3, 10], [4, 2], [4, 3], [4, 4], [4, 10], [5, 5], [5, 8], [5, 9], [6, 2], [6, 3], [6, 4], [6, 5], [6, 6], [6, 7], [7, 1], [7, 6], [7, 8], [7, 9], [8, 1], [8, 2], [8, 4], [8, 9], [8, 10], [9, 4], [9, 5], [9, 6], [9, 8], [9, 9], [9, 10], [10, 1], [10, 3], [10, 5], [10, 6], [10, 8]]
